networks/zoo_19_15/zoo_19_15-lower.txt
Number of groups: 8
Flow 2: {1 4 0} {4 5 0} {5 6 0} {6 16 0} 
Flow 3: {4 1 0} {1 11 0} 
Flow 4: {5 15 0} 
Flow 6: {4 7 0} {7 17 0} 
Flow 7: {4 8 0} {8 9 0} {9 19 0} 
Flow 8: {7 4 0} 
Flow 9: {8 1 0} 
Flow 15: {9 8 0} {8 4 0} {4 14 0} 
Time taken running everything: 0 seconds
