networks/zoo_19_15/zoo_19_15-lower.sol
<?xml version = "1.0" encoding="UTF-8" standalone="yes"?>
<CPLEXSolution version="1.2">
 <header
   problemName="networks/zoo_19_15/zoo_19_15-lower.lp"
   solutionName="incumbent"
   solutionIndex="-1"
   objectiveValue="6"
   solutionTypeValue="3"
   solutionTypeString="primal"
   solutionStatusValue="101"
   solutionStatusString="integer optimal solution"
   solutionMethodString="mip"
   primalFeasible="1"
   dualFeasible="1"
   MIPNodes="0"
   MIPIterations="0"
   writeLevel="3"/>
 <quality
   epInt="1.0000000000000001e-05"
   epRHS="9.9999999999999995e-07"
   maxIntInfeas="0"
   maxPrimalInfeas="0"
   maxX="1"
   maxSlack="1"/>
 <variables>
  <variable name="Y(1,4)" index="1" value="1"/>
  <variable name="Y(2,6)" index="16" value="1"/>
  <variable name="Y(3,1)" index="26" value="1"/>
  <variable name="Y(4,5)" index="41" value="1"/>
  <variable name="Y(6,7)" index="69" value="1"/>
  <variable name="Y(7,9)" index="84" value="1"/>
  <variable name="X(1,4,1)" index="195" value="1"/>
  <variable name="X(1,11,3)" index="212" value="1"/>
  <variable name="X(4,1,3)" index="227" value="1"/>
  <variable name="X(4,5,2)" index="241" value="1"/>
  <variable name="X(4,7,6)" index="260" value="1"/>
  <variable name="X(4,8,7)" index="276" value="1"/>
  <variable name="X(4,14,1)" index="285" value="1"/>
  <variable name="X(5,6,2)" index="301" value="1"/>
  <variable name="X(5,15,4)" index="318" value="1"/>
  <variable name="X(6,16,2)" index="331" value="1"/>
  <variable name="X(7,4,8)" index="352" value="1"/>
  <variable name="X(7,17,6)" index="365" value="1"/>
  <variable name="X(8,1,9)" index="383" value="1"/>
  <variable name="X(8,4,10)" index="399" value="1"/>
  <variable name="X(8,9,7)" index="411" value="1"/>
  <variable name="X(9,8,15)" index="434" value="1"/>
  <variable name="X(9,19,7)" index="441" value="1"/>
 </variables>
</CPLEXSolution>
